; Options: -q --produce-models --incremental --print-success --lang smt2.6
(declare-fun start!57116 () Bool)

(assert start!57116)

(declare-datatypes ((T!45277 0))(
  ( (T!45278 (val!95 Int)) )
))
(declare-fun v!328 () T!45277)

(declare-fun at!213 () (_ BitVec 32))

(declare-fun e!182325 () Bool)

(declare-fun b!261913 () Bool)

(declare-datatypes ((array!14533 0))(
  ( (array!14534 (arr!7329 (Array (_ BitVec 32) T!45277)) (size!6342 (_ BitVec 32))) )
))
(declare-fun a!411 () array!14533)

(declare-fun arrayRangesEq!964 (array!14533 array!14533 (_ BitVec 32) (_ BitVec 32)) Bool)

(assert (=> b!261913 (= e!182325 (not (arrayRangesEq!964 a!411 (array!14534 (store (arr!7329 a!411) at!213 v!328) (size!6342 a!411)) at!213 at!213)))))

(declare-fun mapIsEmpty!529 () Bool)

(declare-fun mapRes!529 () Bool)

(assert (=> mapIsEmpty!529 mapRes!529))

(declare-fun b!261914 () Bool)

(declare-fun e!182326 () Bool)

(declare-fun tp_is_empty!191 () Bool)

(assert (=> b!261914 (= e!182326 (and tp_is_empty!191 mapRes!529))))

(declare-fun condMapEmpty!529 () Bool)

(declare-fun mapDefault!529 () T!45277)

